\ Model amplgurobi_copy
\ LP format - for model browsing. Use MPS format to capture full model detail.
Minimize
 
Subject To
 R309: - 0.45 C309 + C603 <= 0
 R330: - 1.81 C330 + C624 <= 0
 R365: - 1.81 C365 + C659 <= 0
 R442: - 2.06 C442 + C736 <= 0
 R463: - 2.06 C463 + C757 <= 0
 R498: - 2.65 C498 + C792 <= 0
 R519: - 2.65 C519 + C813 <= 0
 R547: - 2.65 C547 + C841 <= 0
 R554: - 207 C554 + C848 <= 0
 R1205: 0.1851938339438339 C78 - 0.0148061660561661 C85
   - 0.0148061660561661 C92 - 0.0148061660561661 C99
   - 0.0148061660561661 C106 - 0.0148061660561661 C113
   - 0.0148061660561661 C120 - 0.0148061660561661 C127
   - 0.0148061660561661 C134 - 0.0148061660561661 C141
   - 0.0148061660561661 C148 - 0.0148061660561661 C155
   - 0.0148061660561661 C162 - 0.0148061660561661 C169
   - 0.0148061660561661 C176 - 0.0148061660561661 C183
   - 0.00370154151404151 C260 - 0.00370154151404151 C267
   - 0.00740308302808303 C274 + C372 + 1831.020034 C961
   <= 1835.422776579598
 R1219: - 0.3623473748473749 C78 - 0.3623473748473749 C85
   - 0.3623473748473749 C92 - 0.3623473748473749 C99
   - 0.3623473748473749 C106 - 0.3623473748473749 C113
   + 4.637652625152625 C120 - 0.3623473748473749 C127
   - 0.3623473748473749 C134 - 0.3623473748473749 C141
   - 0.3623473748473749 C148 - 0.3623473748473749 C155
   - 0.3623473748473749 C162 - 0.3623473748473749 C169
   - 0.3623473748473749 C176 - 0.3623473748473749 C183
   - 0.0905868437118437 C260 - 0.0905868437118437 C267
   - 0.1811736874236874 C274 + C414 + 937.9715179999999 C1003
   <= 1019.697709869026
 R1233: - 0.0148061660561661 C78 + 0.1851938339438339 C85
   - 0.0148061660561661 C92 - 0.0148061660561661 C99
   - 0.0148061660561661 C106 - 0.0148061660561661 C113
   - 0.0148061660561661 C120 - 0.0148061660561661 C127
   - 0.0148061660561661 C134 - 0.0148061660561661 C141
   - 0.0148061660561661 C148 - 0.0148061660561661 C155
   - 0.0148061660561661 C162 - 0.0148061660561661 C169
   - 0.0148061660561661 C176 - 0.0148061660561661 C183
   - 0.00370154151404151 C260 - 0.00370154151404151 C267
   - 0.00740308302808303 C274 + C379 + 1831.020034 C968
   <= 1835.422776579598
 R1324: - 0.0829431189725307 C29 - 0.0829431189725307 C36
   + 1.317056881027469 C43 - 0.0829431189725307 C50
   - 0.0829431189725307 C57 - 0.0829431189725307 C64
   - 0.0829431189725307 C71 - 0.0276477063241769 C190
   - 0.0276477063241769 C197 - 0.0276477063241769 C204
   - 0.0276477063241769 C211 - 0.0276477063241769 C218
   - 0.0276477063241769 C225 - 0.0276477063241769 C232
   - 0.0276477063241769 C239 - 0.0276477063241769 C246
   - 0.0276477063241769 C253 - 0.0207357797431327 C260
   - 0.0207357797431327 C267 - 0.0414715594862654 C281
   - 0.0414715594862654 C288 + C337 + 291.005583 C926 <= 295.3311498312881
 R1373: - 0.0148061660561661 C78 - 0.0148061660561661 C85
   + 0.1851938339438339 C92 - 0.0148061660561661 C99
   - 0.0148061660561661 C106 - 0.0148061660561661 C113
   - 0.0148061660561661 C120 - 0.0148061660561661 C127
   - 0.0148061660561661 C134 - 0.0148061660561661 C141
   - 0.0148061660561661 C148 - 0.0148061660561661 C155
   - 0.0148061660561661 C162 - 0.0148061660561661 C169
   - 0.0148061660561661 C176 - 0.0148061660561661 C183
   - 0.00370154151404151 C260 - 0.00370154151404151 C267
   - 0.00740308302808303 C274 + C386 + 1831.020034 C975
   <= 1835.422776579598
 R1387: - 0.0148061660561661 C78 - 0.0148061660561661 C85
   - 0.0148061660561661 C92 + 0.1851938339438339 C99
   - 0.0148061660561661 C106 - 0.0148061660561661 C113
   - 0.0148061660561661 C120 - 0.0148061660561661 C127
   - 0.0148061660561661 C134 - 0.0148061660561661 C141
   - 0.0148061660561661 C148 - 0.0148061660561661 C155
   - 0.0148061660561661 C162 - 0.0148061660561661 C169
   - 0.0148061660561661 C176 - 0.0148061660561661 C183
   - 0.00370154151404151 C260 - 0.00370154151404151 C267
   - 0.00740308302808303 C274 + C393 + 1831.020034 C982
   <= 1835.422776579598
 R1401: - 0.00650100025006252 C1 - 0.00650100025006252 C8
   - 0.00650100025006252 C15 - 0.00650100025006252 C22
   - 0.00650100025006252 C29 - 0.00650100025006252 C36
   - 0.00650100025006252 C43 - 0.00650100025006252 C50
   - 0.00650100025006252 C57 - 0.00650100025006252 C64
   - 0.00650100025006252 C71 - 0.00650100025006252 C78
   - 0.00650100025006252 C85 - 0.00650100025006252 C92
   - 0.00650100025006252 C99 - 0.00650100025006252 C106
   - 0.00650100025006252 C113 - 0.00650100025006252 C120
   - 0.00650100025006252 C127 - 0.00650100025006252 C134
   - 0.00650100025006252 C141 - 0.00650100025006252 C148
   - 0.00650100025006252 C155 - 0.00650100025006252 C162
   - 0.00650100025006252 C169 - 0.00650100025006252 C176
   - 0.00650100025006252 C183 - 0.00650100025006252 C190
   - 0.00650100025006252 C197 - 0.00650100025006252 C204
   - 0.00650100025006252 C211 - 0.00650100025006252 C218
   - 0.00650100025006252 C225 - 0.00650100025006252 C232
   - 0.00650100025006252 C239 - 0.00650100025006252 C246
   - 0.00650100025006252 C253 + 0.0483747499374844 C260 - 0.00162525 C267
   - 0.00650100025006252 C274 - 0.00650100025006252 C281
   - 0.00650100025006252 C288 + C554 + 1831.020034 C1143
   <= 1848.223677177115
 R1408: - 0.00790978157644824 C1 - 0.00790978157644824 C8
   - 0.00790978157644824 C15 - 0.00790978157644824 C22
   - 0.00790978157644824 C78 - 0.00790978157644824 C85
   - 0.00790978157644824 C92 - 0.00790978157644824 C99
   - 0.00790978157644824 C106 - 0.00790978157644824 C113
   - 0.00790978157644824 C120 - 0.00790978157644824 C127
   - 0.00790978157644824 C134 - 0.00790978157644824 C141
   - 0.00790978157644824 C148 - 0.00790978157644824 C155
   - 0.00790978157644824 C162 - 0.00790978157644824 C169
   - 0.00790978157644824 C176 - 0.00790978157644824 C183
   - 0.00263659385881608 C190 - 0.00263659385881608 C197
   - 0.00263659385881608 C204 - 0.00263659385881608 C211
   - 0.00263659385881608 C218 - 0.00263659385881608 C225
   - 0.00263659385881608 C232 - 0.00263659385881608 C239
   - 0.00263659385881608 C246 - 0.00263659385881608 C253
   - 0.00395489078822412 C260 - 0.00395489078822412 C267
   + 0.0960451092117759 C274 - 0.00395489078822412 C281
   - 0.00395489078822412 C288 + C568 + 1831.020034 C1157
   <= 1837.839791124157
 R1443: - 0.00650100025006252 C1 - 0.00650100025006252 C8
   - 0.00650100025006252 C15 - 0.00650100025006252 C22
   - 0.00650100025006252 C29 - 0.00650100025006252 C36
   - 0.00650100025006252 C43 - 0.00650100025006252 C50
   - 0.00650100025006252 C57 - 0.00650100025006252 C64
   - 0.00650100025006252 C71 - 0.00650100025006252 C78
   - 0.00650100025006252 C85 - 0.00650100025006252 C92
   - 0.00650100025006252 C99 - 0.00650100025006252 C106
   - 0.00650100025006252 C113 - 0.00650100025006252 C120
   - 0.00650100025006252 C127 - 0.00650100025006252 C134
   - 0.00650100025006252 C141 - 0.00650100025006252 C148
   - 0.00650100025006252 C155 - 0.00650100025006252 C162
   - 0.00650100025006252 C169 - 0.00650100025006252 C176
   - 0.00650100025006252 C183 - 0.00650100025006252 C190
   - 0.00650100025006252 C197 - 0.00650100025006252 C204
   - 0.00650100025006252 C211 - 0.00650100025006252 C218
   - 0.00650100025006252 C225 - 0.00650100025006252 C232
   - 0.00650100025006252 C239 - 0.00650100025006252 C246
   - 0.00650100025006252 C253 - 0.00162525 C260 + 0.0483747499374844 C267
   - 0.00650100025006252 C274 - 0.00650100025006252 C281
   - 0.00650100025006252 C288 + C561 + 1831.020034 C1150
   <= 1848.223677177115
 R1464: - 0.0148061660561661 C78 - 0.0148061660561661 C85
   - 0.0148061660561661 C92 - 0.0148061660561661 C99
   + 0.1851938339438339 C106 - 0.0148061660561661 C113
   - 0.0148061660561661 C120 - 0.0148061660561661 C127
   - 0.0148061660561661 C134 - 0.0148061660561661 C141
   - 0.0148061660561661 C148 - 0.0148061660561661 C155
   - 0.0148061660561661 C162 - 0.0148061660561661 C169
   - 0.0148061660561661 C176 - 0.0148061660561661 C183
   - 0.00370154151404151 C260 - 0.00370154151404151 C267
   - 0.00740308302808303 C274 + C400 + 1831.020034 C989
   <= 1835.422776579598
 R1499: C407 + C414 + C421 + C428 + C435 + C442 + C449 + C456 + C463 + C470
   + C477 <= 267.4686073333333
 R1520: - 200.295609 C15 - 0.45 C309 + C603 >= -90.13302405
 R1541: - 224.846562 C36 - 1.81 C330 + C624 >= -406.97227722
 R1576: - 224.846562 C71 - 1.81 C365 + C659 >= -406.97227722
 R1653: - 401.202911 C148 - 2.06 C442 + C736 >= -826.4779966599999
 R1674: - 401.202911 C169 - 2.06 C463 + C757 >= -826.4779966599999
 R1709: - 224.846562 C204 - 2.65 C498 + C792 >= -595.8433893
 R1730: - 224.846562 C225 - 2.65 C519 + C813 >= -595.8433893
 R1758: - 224.846562 C253 - 2.65 C547 + C841 >= -595.8433893
 R1765: - 401.202911 C260 - 207 C554 + C848 >= -83049.00257699999
 R7407: C372 + C379 + C386 + C393 + C400 + C407 + C414 + C421 + C428 + C435
   + C442 + C449 + C456 + C463 + C470 + C477 + C554 + C561 + C568
   >= 401.202911
 R7434: - C372 + 1831.020034 C961 >= 0
 R7462: - C379 + 1831.020034 C968 >= 0
 R7602: - C386 + 1831.020034 C975 >= 0
 R7616: - C393 + 1831.020034 C982 >= 0
 R7630: - C554 + 1831.020034 C1143 >= 0
 R7637: - C568 + 1831.020034 C1157 >= 0
 R7672: - C561 + 1831.020034 C1150 >= 0
 R7693: - C400 + 1831.020034 C989 >= 0
 R7728: - C78 + 4.73 C961 >= 0
 R7735: - C113 + 2.06 C996 >= 0
 R7749: - C190 + 2.65 C1073 >= 0
 R7756: - C85 + 4.73 C968 >= 0
 R7763: - C127 + 2.06 C1010 >= 0
 R7770: - C1 + 0.45 C884 >= 0
 R7777: - C29 + 1.81 C912 >= 0
 R7784: - C197 + 2.65 C1080 >= 0
 R7791: - C134 + 2.06 C1017 >= 0
 R7798: - C141 + 2.06 C1024 >= 0
 R7819: - C8 + 0.45 C891 >= 0
 R7833: - C211 + 2.65 C1094 >= 0
 R7868: - C155 + 2.06 C1038 >= 0
 R7875: - C50 + 1.81 C933 >= 0
 R7882: - C162 + 2.06 C1045 >= 0
 R7889: - C232 + 2.65 C1115 >= 0
 R7896: - C92 + 4.73 C975 >= 0
 R7910: - C99 + 4.73 C982 >= 0
 R7952: - C176 + 2.06 C1059 >= 0
 R7966: - C267 + 207 C1150 >= 0
 R7980: - C64 + 1.81 C947 >= 0
 R7987: - C106 + 4.73 C989 >= 0
 R7994: - C183 + 2.06 C1066 >= 0
 R8008: - C288 + 2.3 C1171 >= 0
 R8085: - 0.3623473748473749 C78 - 0.3623473748473749 C85
   - 0.3623473748473749 C92 - 0.3623473748473749 C99
   - 0.3623473748473749 C106 - 0.3623473748473749 C113
   - 0.3623473748473749 C120 - 0.3623473748473749 C127
   + 4.637652625152625 C134 - 0.3623473748473749 C141
   - 0.3623473748473749 C148 - 0.3623473748473749 C155
   - 0.3623473748473749 C162 - 0.3623473748473749 C169
   - 0.3623473748473749 C176 - 0.3623473748473749 C183
   - 0.0905868437118437 C260 - 0.0905868437118437 C267
   - 0.1811736874236874 C274 + C428 - 937.9715179999999 C1017
   >= -856.2453261309744
 R8092: - 0.3623473748473749 C78 - 0.3623473748473749 C85
   - 0.3623473748473749 C92 - 0.3623473748473749 C99
   - 0.3623473748473749 C106 - 0.3623473748473749 C113
   - 0.3623473748473749 C120 - 0.3623473748473749 C127
   - 0.3623473748473749 C134 + 4.637652625152625 C141
   - 0.3623473748473749 C148 - 0.3623473748473749 C155
   - 0.3623473748473749 C162 - 0.3623473748473749 C169
   - 0.3623473748473749 C176 - 0.3623473748473749 C183
   - 0.0905868437118437 C260 - 0.0905868437118437 C267
   - 0.1811736874236874 C274 + C435 - 937.9715179999999 C1024
   >= -856.2453261309744
 R8176: - 0.3623473748473749 C78 - 0.3623473748473749 C85
   - 0.3623473748473749 C92 - 0.3623473748473749 C99
   - 0.3623473748473749 C106 - 0.3623473748473749 C113
   - 0.3623473748473749 C120 - 0.3623473748473749 C127
   - 0.3623473748473749 C134 - 0.3623473748473749 C141
   - 0.3623473748473749 C148 - 0.3623473748473749 C155
   + 4.637652625152625 C162 - 0.3623473748473749 C169
   - 0.3623473748473749 C176 - 0.3623473748473749 C183
   - 0.0905868437118437 C260 - 0.0905868437118437 C267
   - 0.1811736874236874 C274 + C456 - 937.9715179999999 C1045
   >= -856.2453261309744
 R8288: - 0.3623473748473749 C78 - 0.3623473748473749 C85
   - 0.3623473748473749 C92 - 0.3623473748473749 C99
   - 0.3623473748473749 C106 - 0.3623473748473749 C113
   - 0.3623473748473749 C120 - 0.3623473748473749 C127
   - 0.3623473748473749 C134 - 0.3623473748473749 C141
   - 0.3623473748473749 C148 - 0.3623473748473749 C155
   - 0.3623473748473749 C162 - 0.3623473748473749 C169
   - 0.3623473748473749 C176 + 4.637652625152625 C183
   - 0.0905868437118437 C260 - 0.0905868437118437 C267
   - 0.1811736874236874 C274 + C477 - 937.9715179999999 C1066
   >= -856.2453261309744
 R8939: - C246 + C267 - 1000 C1150 >= -1000
 R8981: - C22 - C57 - C176 + C267 - 1000 C1150 >= -1000
 R8988: C260 - C274 - 1000 C1143 >= -1000
 R9023: - C176 + C267 - C281 - 1000 C1150 >= -1000
Bounds
 C1 free
 C8 free
 C15 free
 C29 free
 C36 free
 C43 free
 C50 free
 C64 free
 C71 free
 C113 free
 C127 free
 C134 free
 C141 free
 C148 free
 C155 free
 C162 free
 C169 free
 C176 free
 C183 free
 C190 free
 C197 free
 C204 free
 C211 free
 -infinity <= C218 <= 1000
 C225 free
 C232 free
 -infinity <= C239 <= 1000
 C253 free
 C260 free
 C267 free
 C281 free
 C288 free
 C309 free
 C330 free
 C365 free
 C372 free
 C379 free
 C386 free
 C393 free
 C400 free
 C442 free
 C463 free
 C498 free
 C519 free
 C547 free
 C554 free
 C561 free
 C568 free
 C603 free
 C624 free
 C659 free
 C792 free
 C813 free
 C841 free
 C848 free
 -infinity <= C884 <= 1
 -infinity <= C891 <= 1
 -infinity <= C912 <= 1
 -infinity <= C933 <= 1
 -infinity <= C947 <= 1
 C961 free
 C968 free
 C975 free
 C982 free
 C989 free
 -infinity <= C996 <= 1
 -infinity <= C1010 <= 1
 C1017 free
 C1024 free
 -infinity <= C1038 <= 1
 C1045 free
 -infinity <= C1059 <= 1
 C1066 free
 -infinity <= C1073 <= 1
 -infinity <= C1080 <= 1
 -infinity <= C1094 <= 1
 -infinity <= C1115 <= 1
 C1143 free
 C1150 free
 C1157 free
 -infinity <= C1171 <= 1
Generals
 C884 C891 C912 C926 C933 C947 C961 C968 C975 C982 C989 C996 C1003 C1010
 C1017 C1024 C1038 C1045 C1059 C1066 C1073 C1080 C1094 C1115 C1143 C1150
 C1157 C1171
End
